n_machines = 10;
n_resources = 20;
n_jobs = 53;
horizon = 2720;
LB = 277;
n_jobs_per_resource = [1, 3, 1, 1, 3, 3, 2, 3, 4, 3, 3, 4, 3, 4, 4, 2, 1, 3, 2, 3];
duration = [48, 3, 93, 84, 50, 33, 35, 87, 48, 36, 31, 75, 68, 78, 9, 63, 4, 20, 38, 88, 23, 54, 13, 51, 66, 85, 93, 20, 25, 51, 45, 51, 48, 55, 58, 38, 2, 10, 28, 79, 47, 98, 52, 48, 70, 97, 85, 95, 25, 86, 51, 59, 21]